NAME JobShopModel
ROWS
 N  OBJ
 G  c0      
 E  c1      
 E  c2      
 E  c3      
 E  c4      
 E  c5      
 E  c6      
 L  c7      
 L  c8      
 L  c9      
 L  c10     
 L  c11     
 L  c12     
 G  c13     
 G  c14     
 G  c15     
 G  c16     
 G  c17     
 G  c18     
 G  c19     
 G  c20     
 G  c21     
 G  c22     
 G  c23     
 G  c24     
 G  c25     
 G  c26     
 G  c27     
 G  c28     
 G  c29     
 G  c30     
 G  c31     
 G  c32     
 G  c33     
 G  c34     
 G  c35     
 G  c36     
 G  c37     
 G  c38     
 G  c39     
 G  c40     
 G  c41     
 G  c42     
 G  c43     
 G  c44     
 G  c45     
 G  c46     
 G  c47     
 G  c48     
 G  c49     
 G  c50     
 G  c51     
COLUMNS
    MARKER    'MARKER'                 'INTORG'
    y[0,0,1]  c0        -4
    y[0,0,1]  c1        1
    y[0,0,1]  c7        -10000000
    y[0,0,1]  c16       -10000000
    y[0,0,1]  c17       -10000000
    y[0,0,1]  c18       -10000000
    y[0,0,1]  c19       -10000000
    y[0,0,1]  c20       -10000000
    y[0,0,1]  c21       -10000000
    y[0,0,1]  c22       -10000000
    y[0,0,1]  c23       -10000000
    y[0,0,1]  c24       -10000000
    y[0,0,1]  c25       -10000000
    y[0,0,1]  c40       -3
    y[0,1,1]  c2        1
    y[0,1,1]  c8        -10000000
    y[0,1,1]  c13       -5
    y[0,1,1]  c16       -10000000
    y[0,1,1]  c17       -10000000
    y[0,1,1]  c24       -10000000
    y[0,1,1]  c25       -10000000
    y[0,1,1]  c26       -10000000
    y[0,1,1]  c27       -10000000
    y[0,1,1]  c28       -10000000
    y[0,1,1]  c29       -10000000
    y[0,1,1]  c30       -10000000
    y[0,1,1]  c31       -10000000
    y[1,0,0]  c0        -4
    y[1,0,0]  c3        1
    y[1,0,0]  c9        -10000000
    y[1,0,0]  c44       -2
    y[1,1,1]  c4        1
    y[1,1,1]  c10       -10000000
    y[1,1,1]  c14       -3
    y[1,1,1]  c18       -10000000
    y[1,1,1]  c19       -10000000
    y[1,1,1]  c26       -10000000
    y[1,1,1]  c27       -10000000
    y[1,1,1]  c32       -10000000
    y[1,1,1]  c33       -10000000
    y[1,1,1]  c34       -10000000
    y[1,1,1]  c35       -10000000
    y[1,1,1]  c46       -2
    y[2,0,1]  c0        -3
    y[2,0,1]  c5        1
    y[2,0,1]  c11       -10000000
    y[2,0,1]  c20       -10000000
    y[2,0,1]  c21       -10000000
    y[2,0,1]  c28       -10000000
    y[2,0,1]  c29       -10000000
    y[2,0,1]  c32       -10000000
    y[2,0,1]  c33       -10000000
    y[2,0,1]  c36       -10000000
    y[2,0,1]  c37       -10000000
    y[2,0,1]  c38       -10000000
    y[2,0,1]  c39       -10000000
    y[2,1,1]  c6        1
    y[2,1,1]  c12       -10000000
    y[2,1,1]  c15       -4
    y[2,1,1]  c22       -10000000
    y[2,1,1]  c23       -10000000
    y[2,1,1]  c30       -10000000
    y[2,1,1]  c31       -10000000
    y[2,1,1]  c34       -10000000
    y[2,1,1]  c35       -10000000
    y[2,1,1]  c36       -10000000
    y[2,1,1]  c37       -10000000
    y[2,1,1]  c38       -10000000
    y[2,1,1]  c39       -10000000
    y[2,1,1]  c50       -2
    x[0,0,0,0]  OBJ       0
    x[0,0,0,1]  c16       10000000
    x[0,0,0,1]  c17       -10000000
    x[0,0,1,0]  OBJ       0
    x[0,0,1,1]  c18       10000000
    x[0,0,1,1]  c19       -10000000
    x[0,0,2,0]  c20       10000000
    x[0,0,2,0]  c21       -10000000
    x[0,0,2,1]  c22       10000000
    x[0,0,2,1]  c23       -10000000
    x[0,1,0,0]  c24       10000000
    x[0,1,0,0]  c25       -10000000
    x[0,1,0,1]  OBJ       0
    x[0,1,1,0]  OBJ       0
    x[0,1,1,1]  c26       10000000
    x[0,1,1,1]  c27       -10000000
    x[0,1,2,0]  c28       10000000
    x[0,1,2,0]  c29       -10000000
    x[0,1,2,1]  c30       10000000
    x[0,1,2,1]  c31       -10000000
    x[1,0,0,0]  OBJ       0
    x[1,0,0,1]  OBJ       0
    x[1,0,1,0]  OBJ       0
    x[1,0,1,1]  OBJ       0
    x[1,0,2,0]  OBJ       0
    x[1,0,2,1]  OBJ       0
    x[1,1,0,0]  OBJ       0
    x[1,1,0,1]  OBJ       0
    x[1,1,1,0]  OBJ       0
    x[1,1,1,1]  OBJ       0
    x[1,1,2,0]  c32       10000000
    x[1,1,2,0]  c33       -10000000
    x[1,1,2,1]  c34       10000000
    x[1,1,2,1]  c35       -10000000
    x[2,0,0,0]  OBJ       0
    x[2,0,0,1]  OBJ       0
    x[2,0,1,0]  OBJ       0
    x[2,0,1,1]  OBJ       0
    x[2,0,2,0]  OBJ       0
    x[2,0,2,1]  c36       10000000
    x[2,0,2,1]  c37       -10000000
    x[2,1,0,0]  OBJ       0
    x[2,1,0,1]  OBJ       0
    x[2,1,1,0]  OBJ       0
    x[2,1,1,1]  OBJ       0
    x[2,1,2,0]  c38       10000000
    x[2,1,2,0]  c39       -10000000
    x[2,1,2,1]  OBJ       0
    s[0,0,1]  c0        -1
    s[0,0,1]  c7        1
    s[0,0,1]  c13       1
    s[0,0,1]  c16       -1
    s[0,0,1]  c17       1
    s[0,0,1]  c18       -1
    s[0,0,1]  c19       1
    s[0,0,1]  c20       -1
    s[0,0,1]  c21       1
    s[0,0,1]  c22       -1
    s[0,0,1]  c23       1
    s[0,0,1]  c24       1
    s[0,0,1]  c25       -1
    s[0,0,1]  c40       1
    s[0,0,1]  c41       1
    s[0,1,1]  c8        1
    s[0,1,1]  c13       -1
    s[0,1,1]  c16       1
    s[0,1,1]  c17       -1
    s[0,1,1]  c24       -1
    s[0,1,1]  c25       1
    s[0,1,1]  c26       -1
    s[0,1,1]  c27       1
    s[0,1,1]  c28       -1
    s[0,1,1]  c29       1
    s[0,1,1]  c30       -1
    s[0,1,1]  c31       1
    s[0,1,1]  c42       1
    s[0,1,1]  c43       1
    s[1,0,0]  c0        -1
    s[1,0,0]  c9        1
    s[1,0,0]  c14       1
    s[1,0,0]  c44       1
    s[1,0,0]  c45       1
    s[1,1,1]  c10       1
    s[1,1,1]  c14       -1
    s[1,1,1]  c18       1
    s[1,1,1]  c19       -1
    s[1,1,1]  c26       1
    s[1,1,1]  c27       -1
    s[1,1,1]  c32       -1
    s[1,1,1]  c33       1
    s[1,1,1]  c34       -1
    s[1,1,1]  c35       1
    s[1,1,1]  c46       1
    s[1,1,1]  c47       1
    s[2,0,1]  c0        -1
    s[2,0,1]  c11       1
    s[2,0,1]  c15       1
    s[2,0,1]  c20       1
    s[2,0,1]  c21       -1
    s[2,0,1]  c28       1
    s[2,0,1]  c29       -1
    s[2,0,1]  c32       1
    s[2,0,1]  c33       -1
    s[2,0,1]  c36       -1
    s[2,0,1]  c37       1
    s[2,0,1]  c38       1
    s[2,0,1]  c39       -1
    s[2,0,1]  c48       1
    s[2,0,1]  c49       1
    s[2,1,1]  c12       1
    s[2,1,1]  c15       -1
    s[2,1,1]  c22       1
    s[2,1,1]  c23       -1
    s[2,1,1]  c30       1
    s[2,1,1]  c31       -1
    s[2,1,1]  c34       1
    s[2,1,1]  c35       -1
    s[2,1,1]  c36       1
    s[2,1,1]  c37       -1
    s[2,1,1]  c38       -1
    s[2,1,1]  c39       1
    s[2,1,1]  c50       1
    s[2,1,1]  c51       1
    Z_FO      OBJ       1
    Z_FO      c0        1
    MARKER    'MARKER'                 'INTEND'
RHS
    RHS1      c1        1
    RHS1      c2        1
    RHS1      c3        1
    RHS1      c4        1
    RHS1      c5        1
    RHS1      c6        1
    RHS1      c16       -19999976
    RHS1      c17       -29999990
    RHS1      c18       -19999971
    RHS1      c19       -29999981
    RHS1      c20       -19999981
    RHS1      c21       -29999992
    RHS1      c22       -19999987
    RHS1      c23       -29999981
    RHS1      c24       -19999990
    RHS1      c25       -29999976
    RHS1      c26       -19999980
    RHS1      c27       -29999977
    RHS1      c28       -19999983
    RHS1      c29       -29999981
    RHS1      c30       -19999980
    RHS1      c31       -29999990
    RHS1      c32       -19999994
    RHS1      c33       -29999987
    RHS1      c34       -19999977
    RHS1      c35       -29999976
    RHS1      c36       -19999994
    RHS1      c37       -29999993
    RHS1      c38       -19999993
    RHS1      c39       -29999994
BOUNDS
 BV BND1      y[0,0,1]
 BV BND1      y[0,1,1]
 BV BND1      y[1,0,0]
 BV BND1      y[1,1,1]
 BV BND1      y[2,0,1]
 BV BND1      y[2,1,1]
 BV BND1      x[0,0,0,0]
 BV BND1      x[0,0,0,1]
 BV BND1      x[0,0,1,0]
 BV BND1      x[0,0,1,1]
 BV BND1      x[0,0,2,0]
 BV BND1      x[0,0,2,1]
 BV BND1      x[0,1,0,0]
 BV BND1      x[0,1,0,1]
 BV BND1      x[0,1,1,0]
 BV BND1      x[0,1,1,1]
 BV BND1      x[0,1,2,0]
 BV BND1      x[0,1,2,1]
 BV BND1      x[1,0,0,0]
 BV BND1      x[1,0,0,1]
 BV BND1      x[1,0,1,0]
 BV BND1      x[1,0,1,1]
 BV BND1      x[1,0,2,0]
 BV BND1      x[1,0,2,1]
 BV BND1      x[1,1,0,0]
 BV BND1      x[1,1,0,1]
 BV BND1      x[1,1,1,0]
 BV BND1      x[1,1,1,1]
 BV BND1      x[1,1,2,0]
 BV BND1      x[1,1,2,1]
 BV BND1      x[2,0,0,0]
 BV BND1      x[2,0,0,1]
 BV BND1      x[2,0,1,0]
 BV BND1      x[2,0,1,1]
 BV BND1      x[2,0,2,0]
 BV BND1      x[2,0,2,1]
 BV BND1      x[2,1,0,0]
 BV BND1      x[2,1,0,1]
 BV BND1      x[2,1,1,0]
 BV BND1      x[2,1,1,1]
 BV BND1      x[2,1,2,0]
 BV BND1      x[2,1,2,1]
 LI BND1      s[0,0,1]  0
 LI BND1      s[0,1,1]  0
 LI BND1      s[1,0,0]  0
 LI BND1      s[1,1,1]  0
 LI BND1      s[2,0,1]  0
 LI BND1      s[2,1,1]  0
 LI BND1      Z_FO      0
ENDATA
